Instance: E241-22k.dat
Class:  1
240 --- number of customers (no depot)
22 --- number of vehicles
240 --- number of items
Capacity - height - width of vehicles
   200     40     20
Node - x - y - demand  Readytime Duetime
  0.00    0.00   0.00   0.00 0       469.00
  1.00    5.80   0.00  40.00   7.00   45.00
  2.00    2.90   5.00  40.00 382.00  426.00
  3.00   -2.90   5.00  40.00 256.00  293.00
  4.00   -5.80   0.00  40.00 192.00  226.00
  5.00   -2.90  -5.00  40.00 189.00  230.00
  6.00    2.90  -5.00  40.00  50.00   85.00
  7.00    8.70   5.00  40.00 192.00  235.00
  8.00    0.00  10.00  40.00  58.00   88.00
  9.00   -8.70   5.00  40.00 198.00  232.00
 10.00   -8.70  -5.00  40.00 228.00  267.00
 11.00    0.00 -10.00  40.00 334.00  365.00
 12.00    8.70  -5.00  40.00 307.00  339.00
 13.00    5.30   0.80  10.00 116.00  153.00
 14.00    3.30   4.30  10.00 385.00  420.00
 15.00    6.50  -1.30  10.00 183.00  226.00
 16.00    7.20  -2.50  20.00  27.00   72.00
 17.00    7.90  -3.80  10.00  34.00   75.00
 18.00    6.50   1.30  10.00 319.00  357.00
 19.00    7.20   2.50  20.00  87.00  130.00
 20.00    7.90   3.80  10.00  22.00   62.00
 21.00    2.00   5.00  10.00 130.00  172.00
 22.00   -2.00   5.00  10.00 131.00  170.00
 23.00    4.30   5.00  10.00 185.00  230.00
 24.00    5.80   5.00  20.00 296.00  340.00
 25.00    7.20   5.00  10.00  97.00  139.00
 26.00    2.20   6.30  10.00  25.00   70.00
 27.00    1.40   7.50  20.00  78.00  116.00
 28.00    0.70   8.80  10.00  59.00  102.00
 29.00   -3.30   4.30  10.00 309.00  351.00
 30.00   -5.30   0.80  10.00 112.00  154.00
 31.00   -2.20   6.30  10.00  96.00  134.00
 32.00   -1.40   7.50  20.00 290.00  330.00
 33.00   -0.70   8.80  10.00 311.00  349.00
 34.00   -4.30   5.00  10.00  54.00   91.00
 35.00   -5.80   5.00  20.00 394.00  436.00
 36.00   -7.20   5.00  10.00 308.00  347.00
 37.00   -5.30  -0.80  10.00 213.00  250.00
 38.00   -3.30  -4.30  10.00 309.00  341.00
 39.00   -6.50   1.30  10.00 105.00  145.00
 40.00   -7.20   2.50  20.00 265.00  296.00
 41.00   -7.90   3.80  10.00 237.00  275.00
 42.00   -6.50  -1.30  10.00  47.00   92.00
 43.00   -7.20  -2.50  20.00 225.00  259.00
 44.00   -7.90  -3.80  10.00 301.00  339.00
 45.00   -2.00  -5.00  10.00 382.00  412.00
 46.00    2.00  -5.00  10.00 291.00  324.00
 47.00   -4.30  -5.00  10.00 233.00  265.00
 48.00   -5.80  -5.00  20.00 150.00  187.00
 49.00   -7.20  -5.00  10.00 167.00  198.00
 50.00   -2.20  -6.30  10.00 363.00  404.00
 51.00   -1.40  -7.50  20.00  51.00   90.00
 52.00   -0.70  -8.80  10.00 108.00  150.00
 53.00    3.30  -4.30  10.00 194.00  228.00
 54.00    5.30  -0.80  10.00 156.00  194.00
 55.00    2.20  -6.30  10.00 129.00  168.00
 56.00    1.40  -7.50  20.00  72.00  117.00
 57.00    0.70  -8.80  10.00 157.00  188.00
 58.00    4.30  -5.00  10.00  66.00   97.00
 59.00    5.80  -5.00  20.00 407.00  440.00
 60.00    7.20  -5.00  10.00  24.00   57.00
 61.00    7.20   0.00  40.00 186.00  217.00
 62.00    3.60   6.30  40.00 186.00  217.00
 63.00   -3.60   6.30  40.00 229.00  272.00
 64.00   -7.20   0.00  40.00   1.00   45.00
 65.00   -3.60  -6.30  40.00 350.00  383.00
 66.00    3.60  -6.30  40.00 210.00  251.00
 67.00   10.80   6.30  40.00  68.00  103.00
 68.00    0.00  12.50  40.00 172.00  217.00
 69.00  -10.80   6.30  40.00 255.00  300.00
 70.00  -10.80  -6.30  40.00  65.00  106.00
 71.00    0.00 -12.50  40.00 377.00  416.00
 72.00   10.80  -6.30  40.00 209.00  246.00
 73.00    6.70   0.90  10.00  23.00   56.00
 74.00    4.10   5.30  10.00 403.00  434.00
 75.00    8.10  -1.60  10.00 387.00  432.00
 76.00    9.00  -3.10  20.00 300.00  343.00
 77.00    9.90  -4.70  10.00  41.00   75.00
 78.00    8.10   1.60  10.00 260.00  299.00
 79.00    9.00   3.10  20.00  96.00  136.00
 80.00    9.90   4.70  10.00 146.00  188.00
 81.00    2.50   6.30  10.00 257.00  298.00
 82.00   -2.50   6.30  10.00 327.00  371.00
 83.00    5.40   6.30  10.00 376.00  415.00
 84.00    7.20   6.30  20.00 135.00  178.00
 85.00    9.00   6.30  10.00 251.00  293.00
 86.00    2.70   7.80  10.00 395.00  434.00
 87.00    1.80   9.40  20.00  97.00  137.00
 88.00    0.90  10.90  10.00 162.00  207.00
 89.00   -4.10   5.30  10.00 252.00  287.00
 90.00   -6.70   0.90  10.00 386.00  429.00
 91.00   -2.70   7.80  10.00 105.00  145.00
 92.00   -1.80   9.40  20.00 332.00  369.00
 93.00   -0.90  10.90  10.00 297.00  329.00
 94.00   -5.40   6.30  10.00 179.00  220.00
 95.00   -7.20   6.30  20.00 143.00  173.00
 96.00   -9.00   6.30  10.00 340.00  381.00
 97.00   -6.70  -0.90  10.00 334.00  368.00
 98.00   -4.10  -5.30  10.00  49.00   83.00
 99.00   -8.10   1.60  10.00 258.00  299.00
100.00   -9.00   3.10  20.00 110.00  143.00
101.00   -9.90   4.70  10.00  30.00   64.00
102.00   -8.10  -1.60  10.00 277.00  318.00
103.00   -9.00  -3.10  20.00  69.00  113.00
104.00   -9.90  -4.70  10.00 170.00  207.00
105.00   -2.50  -6.30  10.00 280.00  322.00
106.00    2.50  -6.30  10.00 355.00  394.00
107.00   -5.40  -6.30  10.00 382.00  414.00
108.00   -7.20  -6.30  20.00 154.00  184.00
109.00   -9.00  -6.30  10.00 109.00  152.00
110.00   -2.70  -7.80  10.00 377.00  410.00
111.00   -1.80  -9.40  20.00 194.00  228.00
112.00   -0.90 -10.90  10.00 234.00  271.00
113.00    4.10  -5.30  10.00  12.00   49.00
114.00    6.70  -0.90  10.00  41.00   85.00
115.00    2.70  -7.80  10.00 319.00  358.00
116.00    1.80  -9.40  20.00 261.00  304.00
117.00    0.90 -10.90  10.00 264.00  302.00
118.00    5.40  -6.30  10.00  40.00   78.00
119.00    7.20  -6.30  20.00 215.00  255.00
120.00    9.00  -6.30  10.00 294.00  331.00
121.00    9.00   0.00  40.00 189.00  233.00
122.00    4.50   7.80  40.00 373.00  418.00
123.00   -4.50   7.80  40.00 180.00  210.00
124.00   -9.00   0.00  40.00 282.00  321.00
125.00   -4.50  -7.80  40.00 308.00  349.00
126.00    4.50  -7.80  40.00  38.00   78.00
127.00   13.50   7.80  40.00  48.00   79.00
128.00    0.00  15.60  40.00 145.00  185.00
129.00  -13.50   7.80  40.00 186.00  228.00
130.00  -13.50  -7.80  40.00  28.00   61.00
131.00    0.00 -15.60  40.00  88.00  129.00
132.00   13.50  -7.80  40.00  96.00  133.00
133.00    8.30   1.20  10.00  86.00  128.00
134.00    5.20   6.60  10.00 383.00  415.00
135.00   10.10  -2.00  10.00 372.00  405.00
136.00   11.30  -3.90  20.00 106.00  149.00
137.00   12.40  -5.90  10.00 281.00  323.00
138.00   10.10   2.00  10.00 333.00  373.00
139.00   11.30   3.90  20.00 198.00  233.00
140.00   12.40   5.90  10.00 159.00  193.00
141.00    3.20   7.80  10.00 115.00  154.00
142.00   -3.20   7.80  10.00 385.00  418.00
143.00    6.80   7.80  10.00 201.00  234.00
144.00    9.00   7.80  20.00 300.00  332.00
145.00   11.30   7.80  10.00 384.00  423.00
146.00    3.40   9.80  10.00 230.00  272.00
147.00    2.30  11.70  20.00  39.00   75.00
148.00    1.10  13.70  10.00 341.00  385.00
149.00   -5.20   6.60  10.00 249.00  293.00
150.00   -8.30   1.20  10.00 377.00  414.00
151.00   -3.40   9.80  10.00 304.00  338.00
152.00   -2.30  11.70  20.00 277.00  309.00
153.00   -1.10  13.70  10.00 286.00  324.00
154.00   -6.80   7.80  10.00 274.00  314.00
155.00   -9.00   7.80  20.00  72.00  115.00
156.00  -11.30   7.80  10.00  66.00   96.00
157.00   -8.30  -1.20  10.00 395.00  436.00
158.00   -5.20  -6.60  10.00 173.00  203.00
159.00  -10.10   2.00  10.00 297.00  333.00
160.00  -11.30   3.90  20.00 363.00  401.00
161.00  -12.40   5.90  10.00 354.00  385.00
162.00  -10.10  -2.00  10.00 323.00  363.00
163.00  -11.30  -3.90  20.00 360.00  396.00
164.00  -12.40  -5.90  10.00 250.00  295.00
165.00   -3.20  -7.80  10.00 334.00  379.00
166.00    3.20  -7.80  10.00 304.00  337.00
167.00   -6.80  -7.80  10.00 122.00  158.00
168.00   -9.00  -7.80  20.00 106.00  142.00
169.00  -11.30  -7.80  10.00 173.00  204.00
170.00   -3.40  -9.80  10.00  37.00   73.00
171.00   -2.30 -11.70  20.00 389.00  419.00
172.00   -1.10 -13.70  10.00 360.00  404.00
173.00    5.20  -6.60  10.00  51.00   92.00
174.00    8.30  -1.20  10.00 146.00  189.00
175.00    3.40  -9.80  10.00 305.00  346.00
176.00    2.30 -11.70  20.00 320.00  363.00
177.00    1.10 -13.70  10.00  59.00   95.00
178.00    6.80  -7.80  10.00 114.00  158.00
179.00    9.00  -7.80  20.00 185.00  219.00
180.00   11.30  -7.80  10.00 341.00  379.00
181.00   11.30   0.00  40.00 359.00  399.00
182.00    5.60   9.80  40.00 388.00  431.00
183.00   -5.60   9.80  40.00 264.00  302.00
184.00  -11.30   0.00  40.00  30.00   61.00
185.00   -5.60  -9.80  40.00 125.00  159.00
186.00    5.60  -9.80  40.00  33.00   68.00
187.00   16.90   9.80  40.00 195.00  239.00
188.00    0.00  19.50  40.00 344.00  376.00
189.00  -16.90   9.80  40.00  13.00   51.00
190.00  -16.90  -9.80  40.00 276.00  310.00
191.00    0.00 -19.50  40.00 141.00  176.00
192.00   16.90  -9.80  40.00  36.00   73.00
193.00   10.40   1.50  10.00 125.00  164.00
194.00    6.50   8.30  10.00  34.00   65.00
195.00   12.70  -2.40  10.00 374.00  405.00
196.00   14.10  -4.90  20.00 399.00  435.00
197.00   15.50  -7.30  10.00 359.00  400.00
198.00   12.70   2.40  10.00  85.00  122.00
199.00   14.10   4.90  20.00 300.00  338.00
200.00   15.50   7.30  10.00 323.00  357.00
201.00    3.90   9.80  10.00 174.00  216.00
202.00   -3.90   9.80  10.00  59.00   95.00
203.00    8.50   9.80  10.00 369.00  401.00
204.00   11.30   9.80  20.00 108.00  149.00
205.00   14.10   9.80  10.00  37.00   75.00
206.00    4.20  12.20  10.00  44.00   85.00
207.00    2.80  14.60  20.00  17.00   56.00
208.00    1.40  17.10  10.00  23.00   62.00
209.00   -6.50   8.30  10.00 196.00  236.00
210.00  -10.40   1.50  10.00 226.00  269.00
211.00   -4.20  12.20  10.00 305.00  345.00
212.00   -2.80  14.60  20.00 304.00  342.00
213.00   -1.40  17.10  10.00  17.00   57.00
214.00   -8.50   9.80  10.00 386.00  418.00
215.00  -11.30   9.80  20.00 126.00  165.00
216.00  -14.10   9.80  10.00 369.00  406.00
217.00  -10.40  -1.50  10.00 201.00  234.00
218.00   -6.50  -8.30  10.00  93.00  133.00
219.00  -12.70   2.40  10.00 231.00  262.00
220.00  -14.10   4.90  20.00 301.00  343.00
221.00  -15.50   7.30  10.00 317.00  355.00
222.00  -12.70  -2.40  10.00 180.00  212.00
223.00  -14.10  -4.90  20.00 108.00  150.00
224.00  -15.50  -7.30  10.00 306.00  347.00
225.00   -3.90  -9.80  10.00 153.00  186.00
226.00    3.90  -9.80  10.00 309.00  342.00
227.00   -8.50  -9.80  10.00 326.00  361.00
228.00  -11.30  -9.80  20.00  21.00   61.00
229.00  -14.10  -9.80  10.00 248.00  279.00
230.00   -4.20 -12.20  10.00 269.00  308.00
231.00   -2.80 -14.60  20.00 369.00  413.00
232.00   -1.40 -17.10  10.00 220.00  262.00
233.00    6.50  -8.30  10.00 272.00  305.00
234.00   10.40  -1.50  10.00 303.00  340.00
235.00    4.20 -12.20  10.00  67.00  109.00
236.00    2.80 -14.60  20.00  23.00   60.00
237.00    1.40 -17.10  10.00 274.00  315.00
238.00    8.50  -9.80  10.00 134.00  171.00
239.00   11.30  -9.80  20.00 116.00  155.00
240.00   14.10  -9.80  10.00 378.00  422.00
Node - number of items - h - w for each item
    0   0
    1   1    1    1
    2   1    1    1
    3   1    1    1
    4   1    1    1
    5   1    1    1
    6   1    1    1
    7   1    1    1
    8   1    1    1
    9   1    1    1
   10   1    1    1
   11   1    1    1
   12   1    1    1
   13   1    1    1
   14   1    1    1
   15   1    1    1
   16   1    1    1
   17   1    1    1
   18   1    1    1
   19   1    1    1
   20   1    1    1
   21   1    1    1
   22   1    1    1
   23   1    1    1
   24   1    1    1
   25   1    1    1
   26   1    1    1
   27   1    1    1
   28   1    1    1
   29   1    1    1
   30   1    1    1
   31   1    1    1
   32   1    1    1
   33   1    1    1
   34   1    1    1
   35   1    1    1
   36   1    1    1
   37   1    1    1
   38   1    1    1
   39   1    1    1
   40   1    1    1
   41   1    1    1
   42   1    1    1
   43   1    1    1
   44   1    1    1
   45   1    1    1
   46   1    1    1
   47   1    1    1
   48   1    1    1
   49   1    1    1
   50   1    1    1
   51   1    1    1
   52   1    1    1
   53   1    1    1
   54   1    1    1
   55   1    1    1
   56   1    1    1
   57   1    1    1
   58   1    1    1
   59   1    1    1
   60   1    1    1
   61   1    1    1
   62   1    1    1
   63   1    1    1
   64   1    1    1
   65   1    1    1
   66   1    1    1
   67   1    1    1
   68   1    1    1
   69   1    1    1
   70   1    1    1
   71   1    1    1
   72   1    1    1
   73   1    1    1
   74   1    1    1
   75   1    1    1
   76   1    1    1
   77   1    1    1
   78   1    1    1
   79   1    1    1
   80   1    1    1
   81   1    1    1
   82   1    1    1
   83   1    1    1
   84   1    1    1
   85   1    1    1
   86   1    1    1
   87   1    1    1
   88   1    1    1
   89   1    1    1
   90   1    1    1
   91   1    1    1
   92   1    1    1
   93   1    1    1
   94   1    1    1
   95   1    1    1
   96   1    1    1
   97   1    1    1
   98   1    1    1
   99   1    1    1
  100   1    1    1
  101   1    1    1
  102   1    1    1
  103   1    1    1
  104   1    1    1
  105   1    1    1
  106   1    1    1
  107   1    1    1
  108   1    1    1
  109   1    1    1
  110   1    1    1
  111   1    1    1
  112   1    1    1
  113   1    1    1
  114   1    1    1
  115   1    1    1
  116   1    1    1
  117   1    1    1
  118   1    1    1
  119   1    1    1
  120   1    1    1
  121   1    1    1
  122   1    1    1
  123   1    1    1
  124   1    1    1
  125   1    1    1
  126   1    1    1
  127   1    1    1
  128   1    1    1
  129   1    1    1
  130   1    1    1
  131   1    1    1
  132   1    1    1
  133   1    1    1
  134   1    1    1
  135   1    1    1
  136   1    1    1
  137   1    1    1
  138   1    1    1
  139   1    1    1
  140   1    1    1
  141   1    1    1
  142   1    1    1
  143   1    1    1
  144   1    1    1
  145   1    1    1
  146   1    1    1
  147   1    1    1
  148   1    1    1
  149   1    1    1
  150   1    1    1
  151   1    1    1
  152   1    1    1
  153   1    1    1
  154   1    1    1
  155   1    1    1
  156   1    1    1
  157   1    1    1
  158   1    1    1
  159   1    1    1
  160   1    1    1
  161   1    1    1
  162   1    1    1
  163   1    1    1
  164   1    1    1
  165   1    1    1
  166   1    1    1
  167   1    1    1
  168   1    1    1
  169   1    1    1
  170   1    1    1
  171   1    1    1
  172   1    1    1
  173   1    1    1
  174   1    1    1
  175   1    1    1
  176   1    1    1
  177   1    1    1
  178   1    1    1
  179   1    1    1
  180   1    1    1
  181   1    1    1
  182   1    1    1
  183   1    1    1
  184   1    1    1
  185   1    1    1
  186   1    1    1
  187   1    1    1
  188   1    1    1
  189   1    1    1
  190   1    1    1
  191   1    1    1
  192   1    1    1
  193   1    1    1
  194   1    1    1
  195   1    1    1
  196   1    1    1
  197   1    1    1
  198   1    1    1
  199   1    1    1
  200   1    1    1
  201   1    1    1
  202   1    1    1
  203   1    1    1
  204   1    1    1
  205   1    1    1
  206   1    1    1
  207   1    1    1
  208   1    1    1
  209   1    1    1
  210   1    1    1
  211   1    1    1
  212   1    1    1
  213   1    1    1
  214   1    1    1
  215   1    1    1
  216   1    1    1
  217   1    1    1
  218   1    1    1
  219   1    1    1
  220   1    1    1
  221   1    1    1
  222   1    1    1
  223   1    1    1
  224   1    1    1
  225   1    1    1
  226   1    1    1
  227   1    1    1
  228   1    1    1
  229   1    1    1
  230   1    1    1
  231   1    1    1
  232   1    1    1
  233   1    1    1
  234   1    1    1
  235   1    1    1
  236   1    1    1
  237   1    1    1
  238   1    1    1
  239   1    1    1
  240   1    1    1

